problems/csplib-prob015/SchursLemma-models/noch/O2/lingeling/model_1_3-7-8-solution000001.solution
language Essence 1.3

letting boxes be partition({1}, {2}, {3, 8}, {4}, {5}, {6}, {7})
